50

100 22 311
99 44 350
94 36 288
92 40 377
92 21 344
92 14 344
89 17 291
88 23 400
85 16 394
83 8 281
83 10 335
80 25 347
79 23 363
79 7 312
79 32 277
79 37 352
77 8 364
74 25 361
74 18 357
73 31 340
71 4 234
70 31 213
69 7 330
68 2 298
65 0 208
62 10 379
62 3 397
62 21 391
61 26 216
61 7 184
58 14 332
56 0 301
56 23 258
55 9 200
55 16 264
55 27 350
48 6 349
47 7 231
46 3 163
46 7 322
44 1 391
43 6 253
43 13 257
43 9 371
40 9 245
40 13 355
36 16 128
35 13 214
32 15 112
30 10 240
